decision_x1=[0,2];
decision_x2=[0,2];
decision_x3=[0,2];
decision_x4=[0,2];
decision_x5=[0,2];
decision_x6=[0,2];
decision_x7=[0,2];
decision_x8=[0,2];
random_y1=[0,2];
random_y2=[0,2];
constraint_x3_x2=[
0,0,7.8|
0,1,4.3|
0,2,2.9|
1,0,6.7|
1,1,0.45|
1,2,5.1|
2,0,2.6|
2,1,9.2|
2,2,4.6|
];
constraint_x4_x2=[
0,0,2.8|
0,1,3.5|
0,2,0.81|
1,0,2|
1,1,7.5|
1,2,8.6|
2,0,3.6|
2,1,4.1|
2,2,7|
];
constraint_x5_x4=[
0,0,5|
0,1,5|
0,2,7.5|
1,0,4|
1,1,4.7|
1,2,6.8|
2,0,3.4|
2,1,4.5|
2,2,5.3|
];
constraint_x6_x1=[
0,0,0.0096|
0,1,8.8|
0,2,1.7|
1,0,2.5|
1,1,0.91|
1,2,4.5|
2,0,1.3|
2,1,4.7|
2,2,8|
];
constraint_x6_x2=[
0,0,8.5|
0,1,6|
0,2,2.1|
1,0,0.95|
1,1,7.4|
1,2,2.6|
2,0,8.8|
2,1,2.5|
2,2,2.5|
];
constraint_x6_x3=[
0,0,8.5|
0,1,3.2|
0,2,8.2|
1,0,2.2|
1,1,6.8|
1,2,4.8|
2,0,1.2|
2,1,5.8|
2,2,9|
];
constraint_x6_x4=[
0,0,5.7|
0,1,7.1|
0,2,5.8|
1,0,4.5|
1,1,9.7|
1,2,0.32|
2,0,1.5|
2,1,3.9|
2,2,5.1|
];
constraint_x6_x5=[
0,0,2|
0,1,5.4|
0,2,6|
1,0,8.1|
1,1,3.6|
1,2,8.6|
2,0,0.78|
2,1,0.83|
2,2,1.1|
];
constraint_x7_x2=[
0,0,8.7|
0,1,6.1|
0,2,1.5|
1,0,2.2|
1,1,3.1|
1,2,4.3|
2,0,2.2|
2,1,2|
2,2,8.2|
];
constraint_x7_x5=[
0,0,6.5|
0,1,6.5|
0,2,2.7|
1,0,4.4|
1,1,2.6|
1,2,7.7|
2,0,2.4|
2,1,7.6|
2,2,4.5|
];
constraint_x7_x6=[
0,0,6.5|
0,1,6.4|
0,2,9.4|
1,0,3.2|
1,1,3.4|
1,2,3.3|
2,0,8.5|
2,1,7.5|
2,2,9|
];
constraint_x8_x1=[
0,0,7.6|
0,1,7.2|
0,2,9.2|
1,0,4.7|
1,1,2.1|
1,2,9.2|
2,0,3.4|
2,1,0.68|
2,2,8.7|
];
constraint_x8_x2=[
0,0,5.7|
0,1,5.4|
0,2,9.3|
1,0,3.8|
1,1,6.3|
1,2,1.8|
2,0,9.8|
2,1,4|
2,2,1.8|
];
constraint_x8_x3=[
0,0,7.8|
0,1,5.5|
0,2,6.2|
1,0,4.8|
1,1,5.4|
1,2,7.3|
2,0,7.2|
2,1,7.3|
2,2,7.8|
];
constraint_x1_y1=[
0,0,2.4|
0,1,4|
0,2,3.7|
1,0,9.6|
1,1,5.4|
1,2,4.5|
2,0,7.1|
2,1,0.36|
2,2,7.9|
];
constraint_x2_y2=[
0,0,7.4|
0,1,8.8|
0,2,3.8|
1,0,7.8|
1,1,9.8|
1,2,2.9|
2,0,2.9|
2,1,3.1|
2,2,7.9|
];
initial_distribution_y1=[0.21,0.5,0.29];
initial_distribution_y2=[0.37,0.36,0.27];
transition_y1=[
0.33,0.35,0.32|
0.42,0.26,0.32|
0.48,0.29,0.23|
];
transition_y2=[
0.56,0.25,0.19|
0.065,0.25,0.68|
0.36,0.6,0.045|
];
